* Nombre de variables:   19
* Nombre de contraintes: 6
NAME          Pb Solve
ROWS
 N  OBJECTIF
 L  R0000000
 L  R0000001
 L  R0000002
 L  R0000003
 E  R0000004
 L  R0000005
COLUMNS
    C0000003  OBJECTIF  0.0099999998
    C0000003  R0000000  0.0166663115
    C0000003  R0000001  0.0142856074
    C0000003  R0000002  0.0142856074
    C0000003  R0000003  0.0125000361
    C0000003  R0000005  0.0166663115
    C0000004  OBJECTIF  0.0099999998
    C0000004  R0000000  -0.0166663115
    C0000004  R0000001  -0.0142856074
    C0000004  R0000002  -0.0142856074
    C0000004  R0000003  -0.0125000361
    C0000004  R0000005  -0.0166663115
    C0000005  OBJECTIF  0.1000000015
    C0000006  OBJECTIF  0.1000000015
    C0000007  OBJECTIF  0.1000000015
    C0000008  OBJECTIF  0.1000000015
    C0000009  R0000000  10000.0000000000
    C0000009  R0000004  1.0000000000
    C0000010  OBJECTIF  10.0000000000
    C0000010  R0000000  -1.0000000000
    C0000011  OBJECTIF  0.0000100000
    C0000011  R0000001  10000.0000000000
    C0000011  R0000004  1.0000000000
    C0000012  OBJECTIF  10.0000000000
    C0000012  R0000001  -1.0000000000
    C0000013  OBJECTIF  0.0000200000
    C0000013  R0000002  10000.0000000000
    C0000013  R0000004  1.0000000000
    C0000014  OBJECTIF  10.0000000000
    C0000014  R0000002  -1.0000000000
    C0000015  OBJECTIF  0.0000300000
    C0000015  R0000003  10000.0000000000
    C0000015  R0000004  1.0000000000
    C0000016  OBJECTIF  10.0000000000
    C0000016  R0000003  -1.0000000000
    C0000017  OBJECTIF  0.0000400000
    C0000017  R0000004  1.0000000000
    C0000018  OBJECTIF  10.0000000000
    C0000018  R0000005  -1.0000000000
RHS
    RHSVAL    OBJECTIF  -0.000000
    RHSVAL    R0000000  9915.812529338
    RHSVAL    R0000001  9984.974999911
    RHSVAL    R0000002  10122.106477053
    RHSVAL    R0000003  10156.839395367
    RHSVAL    R0000004  1.000000000
    RHSVAL    R0000005  -484.187470662
BOUNDS
 FX BNDVALUE  C0000000  0.000000000
 FX BNDVALUE  C0000001  0.000000000
 FX BNDVALUE  C0000002  0.000000000
 UP BNDVALUE  C0000003  230784.504220090
 UP BNDVALUE  C0000004  231288.551953201
 FX BNDVALUE  C0000005  0.000000000
 FX BNDVALUE  C0000006  0.000000000
 FX BNDVALUE  C0000007  0.000000000
 FX BNDVALUE  C0000008  0.000000000
 BV BNDVALUE  C0000009
 UP BNDVALUE  C0000010  10000.000000000
 BV BNDVALUE  C0000011
 UP BNDVALUE  C0000012  10000.000000000
 BV BNDVALUE  C0000013
 UP BNDVALUE  C0000014  10000.000000000
 BV BNDVALUE  C0000015
 UP BNDVALUE  C0000016  10000.000000000
 BV BNDVALUE  C0000017
 UP BNDVALUE  C0000018  10000.000000000
ENDATA
